51
103
85
154
9
113
149
78
16
83
57
9
132
57
36
131
68
58
59
78
141
88
74
91
16
35
118
46
77
34
120
73
131
16
40
62
84
96
47
65
30
74
85
54
78
100
61
76
62
11
87
36
5
111
65
89
37
123
82
108
139
58
5
87
40
59
29
57
90
66
111
59
70
89
85
181
99
110
46
57
31
38
141
106
97
91
57
126
126
27
65
126
54
47
138
64
81
38
119
